Clp0006I 0  Obj 0 Primal inf 199.99998 (200) Dual inf 2524011.1 (10000)
Clp0006I 167  Obj -49266.318 Primal inf 33.999997 (34)
Clp0006I 225  Obj -49214.86
Clp0000I Optimal - objective value -49214.86
Clp0000I Optimal - objective value -49214.86
Node 0 depth 0 unsatisfied 0 sum 0 obj -49214.9 guess -49214.9 branching on -1
Clp0000I Optimal - objective value -49214.86
Cbc0004I Integer solution of -49214.86 found after 0 iterations and 0 nodes (0.03 seconds)
Cbc0001I Search completed - best objective -49214.85999999998, took 0 iterations and 0 nodes (0.03 seconds)
Cbc0035I Maximum depth 0, 0 variables fixed on reduced cost
Clp0000I Optimal - objective value -49214.86
Clp0000I Optimal - objective value -49214.86
x_51 = 1
x_186 = 1
x_264 = 1
x_305 = 1
x_487 = 1
x_539 = 1
x_633 = 1
x_747 = 1
x_878 = 1
x_979 = 1
x_1010 = 1
x_1124 = 1
x_1231 = 1
x_1352 = 1
x_1458 = 1
x_1590 = 1
x_1648 = 1
x_1735 = 1
x_1841 = 1
x_1906 = 1
x_2099 = 1
x_2134 = 1
x_2261 = 1
x_2316 = 1
x_2443 = 1
x_2522 = 1
x_2642 = 1
x_2793 = 1
x_2867 = 1
x_2972 = 1
x_3066 = 1
x_3194 = 1
x_3203 = 1
x_3329 = 1
x_3468 = 1
x_3573 = 1
x_3625 = 1
x_3713 = 1
x_3874 = 1
x_3907 = 1
x_4044 = 1
x_4150 = 1
x_4230 = 1
x_4336 = 1
x_4420 = 1
x_4546 = 1
x_4682 = 1
x_4757 = 1
x_4870 = 1
x_4960 = 1
x_5081 = 1
x_5162 = 1
x_5265 = 1
x_5308 = 1
x_5414 = 1
x_5571 = 1
x_5612 = 1
x_5745 = 1
x_5837 = 1
x_5984 = 1
x_6059 = 1
x_6153 = 1
x_6269 = 1
x_6332 = 1
x_6423 = 1
x_6563 = 1
x_6600 = 1
x_6727 = 1
x_6897 = 1
x_6949 = 1
x_7019 = 1
x_7175 = 1
x_7238 = 1
x_7311 = 1
x_7491 = 1
x_7509 = 1
x_7692 = 1
x_7728 = 1
x_7888 = 1
x_7902 = 1
x_8085 = 1
x_8198 = 1
x_8254 = 1
x_8376 = 1
x_8455 = 1
x_8518 = 1
x_8680 = 1
x_8701 = 1
x_8826 = 1
x_8915 = 1
x_9095 = 1
x_9196 = 1
x_9240 = 1
x_9377 = 1
x_9417 = 1
x_9556 = 1
x_9683 = 1
x_9704 = 1
x_9821 = 1
x_9989 = 1
real 0m0,084s user 0m0,072s sys 0m0,012s
